Problem:    
Rows:       260
Columns:    89 (72 integer, 72 binary)
Non-zeros:  812
Status:     INTEGER OPTIMAL
Objective:  value = 1.403197 (MINimum)

   No.   Row name        Activity     Lower bound   Upper bound
------ ------------    ------------- ------------- -------------
     1 r.5                    1001.4             0               
     2 r.6                  -999.373      -999.607               
     3 r.7                    1.4032             0               
     4 r.8                  0.627097      -999.101               
     5 r.9                    1.4032             0               
     6 r.10                 -999.601      -999.621               
     7 r.11                   1001.4             0               
     8 r.12                  -998.92      -999.104               
     9 r.13                   1001.4             0               
    10 r.14                 -999.944      -999.964               
    11 r.15                   1.4032             0               
    12 r.16                 0.627097      -999.921               
    13 r.17                   1.4032             0               
    14 r.18                 -999.926      -999.945               
    15 r.19                   1001.4             0               
    16 r.20                 -999.868      -999.888               
    17 r.21                   1001.4             0               
    18 r.22                 -999.766      -999.822               
    19 r.23                   1.4032             0               
    20 r.24                 0.627097      -999.594               
    21 r.25                   1001.4             0               
    22 r.26                 -999.981      -999.981               
    23 r.27                   1.4032             0               
    24 r.28                   0.0195      -999.954               
    25 r.29                   1001.4             0               
    26 r.30                 -998.597      -999.677               
    27 r.31                   1.4032             0               
    28 r.32                   1.4032      -999.173               
    29 r.33                   1001.4             0               
    30 r.34                  -998.92      -999.547               
    31 r.35                   1.4032             0               
    32 r.36                   1.4032      -998.733               
    33 r.37                        1             1             = 
    34 r.38                        1             1             = 
    35 r.39                        1             1             = 
    36 r.40                        1             1             = 
    37 r.41                        1             1             = 
    38 r.42                        1             1             = 
    39 r.43                        1             1             = 
    40 r.44                        1             1             = 
    41 r.45                     1001             2               
    42 r.46                    -1001         -1001               
    43 r.47                  999.772      -999.621               
    44 r.48                     1001             2               
    45 r.49                    -1001         -1001               
    46 r.50                  2000.45      -999.104               
    47 r.51                        2             2               
    48 r.52                       -2         -1001               
    49 r.53                -0.571522      -999.964               
    50 r.54                     1000             2               
    51 r.55                    -1000         -1001               
    52 r.56                     2000      -999.921               
    53 r.57                     1001             2               
    54 r.58                    -1001         -1001               
    55 r.59                  999.447      -999.945               
    56 r.60                     1001             2               
    57 r.61                    -1001         -1001               
    58 r.62                   1999.5      -999.888               
    59 r.63                        2             2               
    60 r.64                       -2         -1001               
    61 r.65                  -0.3933      -999.822               
    62 r.66                     1000             2               
    63 r.67                    -1000         -1001               
    64 r.68                     2000      -999.594               
    65 r.69                 -999.392      -999.607               
    66 r.70                 0.607597      -999.101               
    67 r.71                 -999.392      -999.607               
    68 r.72                 0.607597      -999.101               
    69 r.73                 -999.224      -999.677               
    70 r.74                   0.7761      -999.173               
    71 r.75                 -999.224      -999.677               
    72 r.76                   0.7761      -999.173               
    73 r.77                 -999.547      -999.547               
    74 r.78                   0.7761      -998.733               
    75 r.79                 -999.547      -999.547               
    76 r.80                   0.7761      -998.733               
    77 r.81                     1001             2               
    78 r.82                    -1001         -1001               
    79 r.83                  3000.23        0.3933               
    80 r.84                     1001             2               
    81 r.85                    -1001         -1001               
    82 r.86                  1999.55       0.89948               
    83 r.87                     1001             2               
    84 r.88                    -1001         -1001               
    85 r.89                  2999.66      -999.964               
    86 r.90                     1001             2               
    87 r.91                    -1001         -1001               
    88 r.92                  1999.55      -999.921               
    89 r.93                     1000             2               
    90 r.94                    -1000         -1001               
    91 r.95                  1999.68      -999.945               
    92 r.96                        2             2               
    93 r.97                       -2         -1001               
    94 r.98                -0.948747      -999.888               
    95 r.99                     1001             2               
    96 r.100                   -1001         -1001               
    97 r.101                 2999.84      -999.822               
    98 r.102                    1001             2               
    99 r.103                   -1001         -1001               
   100 r.104                 1999.55      -999.594               
   101 r.105                -999.621      -999.621               
   102 r.106                -998.939      -999.104               
   103 r.107                -999.621      -999.621               
   104 r.108                -998.939      -999.104               
   105 r.109                 1.00452      -999.677               
   106 r.110                    1001      -999.173               
   107 r.111                -999.677      -999.677               
   108 r.112                  0.3228      -999.173               
   109 r.113                    1001             2               
   110 r.114                   -1001         -1001               
   111 r.115                 3000.68      -999.547               
   112 r.116                    1001             2               
   113 r.117                   -1001         -1001               
   114 r.118                 2000.32      -998.733               
   115 r.119                       2             2               
   116 r.120                      -2         -1001               
   117 r.121                0.571522        0.3933               
   118 r.122                    1000             2               
   119 r.123                   -1000         -1001               
   120 r.124                    2000       0.89948               
   121 r.125                    1001             2               
   122 r.126                   -1001         -1001               
   123 r.127                 1000.34      0.379178               
   124 r.128                    1001             2               
   125 r.129                   -1001         -1001               
   126 r.130                 2000.45      0.896259               
   127 r.131                    1001             2               
   128 r.132                   -1001         -1001               
   129 r.133                 1000.02      -999.945               
   130 r.134                    1001             2               
   131 r.135                   -1001         -1001               
   132 r.136                  1999.5      -999.888               
   133 r.137                       2             2               
   134 r.138                      -2         -1001               
   135 r.139                -999.822      -999.822               
   136 r.140                    1000             2               
   137 r.141                   -1000         -1001               
   138 r.142                    2000      -999.594               
   139 r.143                -999.964      -999.964               
   140 r.144                0.607597      -999.921               
   141 r.145                -999.964      -999.964               
   142 r.146                0.607597      -999.921               
   143 r.147                -998.652      -999.677               
   144 r.148                 1.34762      -999.173               
   145 r.149                -999.224      -999.677               
   146 r.150                  0.7761      -999.173               
   147 r.151                -998.975      -999.547               
   148 r.152                 1.34762      -998.733               
   149 r.153                -999.547      -999.547               
   150 r.154                  0.7761      -998.733               
   151 r.155                    1001             2               
   152 r.156                   -1001         -1001               
   153 r.157                 3000.55        0.3933               
   154 r.158                    1001             2               
   155 r.159                   -1001         -1001               
   156 r.160                  2000.5       0.89948               
   157 r.161                    1000             2               
   158 r.162                   -1000         -1001               
   159 r.163                 2000.32      0.379178               
   160 r.164                       2             2               
   161 r.165                      -2         -1001               
   162 r.166                0.948747      0.896259               
   163 r.167                    1001             2               
   164 r.168                   -1001         -1001               
   165 r.169                 2999.98      0.036075               
   166 r.170                    1001             2               
   167 r.171                   -1001         -1001               
   168 r.172                  2000.5      0.079087               
   169 r.173                    1001             2               
   170 r.174                   -1001         -1001               
   171 r.175                 3000.16      -999.822               
   172 r.176                    1001             2               
   173 r.177                   -1001         -1001               
   174 r.178                  2000.5      -999.594               
   175 r.179                -999.945      -999.945               
   176 r.180                -999.888      -999.888               
   177 r.181                -999.945      -999.945               
   178 r.182                -999.888      -999.888               
   179 r.183                 1.32917      -999.677               
   180 r.184                 1001.33      -999.173               
   181 r.185                -998.728      -999.677               
   182 r.186                 1.27155      -999.173               
   183 r.187                    1001             2               
   184 r.188                   -1001         -1001               
   185 r.189                 3001.01      -999.547               
   186 r.190                    1001             2               
   187 r.191                   -1001         -1001               
   188 r.192                 2001.27      -998.733               
   189 r.193                       2             2               
   190 r.194                      -2         -1001               
   191 r.195                  0.3933        0.3933               
   192 r.196                    1000             2               
   193 r.197                   -1000         -1001               
   194 r.198                    2000       0.89948               
   195 r.199                    1001             2               
   196 r.200                   -1001         -1001               
   197 r.201                 1000.16      0.379178               
   198 r.202                    1001             2               
   199 r.203                   -1001         -1001               
   200 r.204                 2000.45      0.896259               
   201 r.205                       2             2               
   202 r.206                      -2         -1001               
   203 r.207                 999.822      0.036075               
   204 r.208                    1000             2               
   205 r.209                   -1000         -1001               
   206 r.210                    2000      0.079087               
   207 r.211                    1001             2               
   208 r.212                   -1001         -1001               
   209 r.213                  999.84      0.054522               
   210 r.214                    1001             2               
   211 r.215                   -1001         -1001               
   212 r.216                  1999.5       0.11215               
   213 r.217                -999.786      -999.822               
   214 r.218                0.607597      -999.594               
   215 r.219                -999.786      -999.822               
   216 r.220                0.607597      -999.594               
   217 r.221                       2             2               
   218 r.222                      -2         -1001               
   219 r.223                -998.831      -999.677               
   220 r.224                    1000             2               
   221 r.225                   -1000         -1001               
   222 r.226                 2000.78      -999.173               
   223 r.227                -999.153      -999.547               
   224 r.228                  1.1694      -998.733               
   225 r.229                -999.547      -999.547               
   226 r.230                  0.7761      -998.733               
   227 r.231                -998.616      -999.677               
   228 r.232                  1.3837      -999.173               
   229 r.233                -998.616      -999.677               
   230 r.234                  1.3837      -999.173               
   231 r.235                       2             2               
   232 r.236                      -2         -1001               
   233 r.237                 998.831      0.178222               
   234 r.238                    1000             2               
   235 r.239                   -1000         -1001               
   236 r.240                 1999.22       0.40554               
   237 r.241                       2             2               
   238 r.242                      -2         -1001               
   239 r.243                 -0.3228      -999.547               
   240 r.244                    1000             2               
   241 r.245                   -1000         -1001               
   242 r.246                    2000      -998.733               
   243 r.247                    1001             2               
   244 r.248                   -1001         -1001               
   245 r.249                 999.318      0.379178               
   246 r.250                    1001             2               
   247 r.251                   -1001         -1001               
   248 r.252                 1999.68      0.896259               
   249 r.253                    1001             2               
   250 r.254                   -1001         -1001               
   251 r.255                 998.994      0.054522               
   252 r.256                    1001             2               
   253 r.257                   -1001         -1001               
   254 r.258                 1998.73       0.11215               
   255 r.259                       2             2               
   256 r.260                      -2         -1001               
   257 r.261                  0.3228        0.3228               
   258 r.262                    1000             2               
   259 r.263                   -1000         -1001               
   260 r.264                    2000       0.82705               

   No. Column name       Activity     Lower bound   Upper bound
------ ------------    ------------- ------------- -------------
     1 tt                     1.4032             0               
     2 s_1_1        *              1             0             1 
     3 t_1_1                  0.7761             0               
     4 s_1_8        *              1             0             1 
     5 s_1_7        *              1             0             1 
     6 s_2_1        *              0             0             1 
     7 t_2_1                  0.7761             0               
     8 s_2_8        *              0             0             1 
     9 s_2_7        *              0             0             1 
    10 s_1_2        *              0             0             1 
    11 t_1_2                    1001             0               
    12 s_2_2        *              1             0             1 
    13 t_2_2                  0.3228             0               
    14 s_1_3        *              1             0             1 
    15 t_1_3                 1.34762             0               
    16 s_2_3        *              0             0             1 
    17 t_2_3                  0.7761             0               
    18 s_1_4        *              0             0             1 
    19 t_1_4                 1001.33             0               
    20 s_2_4        *              1             0             1 
    21 t_2_4                 1.27155             0               
    22 s_1_5        *              1             0             1 
    23 t_1_5                  1.1694             0               
    24 s_2_5        *              0             0             1 
    25 t_2_5                  0.7761             0               
    26 s_1_6        *              1             0             1 
    27 t_1_6                  1.3837             0               
    28 s_2_6        *              0             0             1 
    29 t_2_6                  1.3837             0               
    30 t_1_7                       0             0               
    31 t_2_7                       0             0               
    32 t_1_8                  0.3228             0               
    33 t_2_8                       0             0               
    34 r_1_1_2      *              1             0             1 
    35 u_1_1_2      *              0             0             1 
    36 r_2_1_2      *              1             0             1 
    37 u_2_1_2      *              0             0             1 
    38 r_1_1_3      *              0             0             1 
    39 u_1_1_3      *              0             0             1 
    40 r_2_1_3      *              1             0             1 
    41 u_2_1_3      *              0             0             1 
    42 r_1_1_4      *              1             0             1 
    43 u_1_1_4      *              0             0             1 
    44 r_2_1_4      *              1             0             1 
    45 u_2_1_4      *              0             0             1 
    46 r_1_1_5      *              0             0             1 
    47 u_1_1_5      *              0             0             1 
    48 r_2_1_5      *              1             0             1 
    49 u_2_1_5      *              0             0             1 
    50 r_1_2_3      *              1             0             1 
    51 u_1_2_3      *              0             0             1 
    52 r_2_2_3      *              1             0             1 
    53 u_2_2_3      *              0             0             1 
    54 r_1_2_4      *              1             0             1 
    55 u_1_2_4      *              0             0             1 
    56 r_2_2_4      *              0             0             1 
    57 u_2_2_4      *              0             0             1 
    58 r_1_2_5      *              1             0             1 
    59 u_1_2_5      *              0             0             1 
    60 r_2_2_5      *              1             0             1 
    61 u_2_2_5      *              0             0             1 
    62 r_1_2_8      *              1             0             1 
    63 u_1_2_8      *              0             0             1 
    64 r_2_2_8      *              1             0             1 
    65 u_2_2_8      *              0             0             1 
    66 r_1_3_4      *              1             0             1 
    67 u_1_3_4      *              0             0             1 
    68 r_2_3_4      *              1             0             1 
    69 u_2_3_4      *              0             0             1 
    70 r_1_3_5      *              0             0             1 
    71 u_1_3_5      *              1             0             1 
    72 r_2_3_5      *              1             0             1 
    73 u_2_3_5      *              0             0             1 
    74 r_1_4_5      *              1             0             1 
    75 u_1_4_5      *              0             0             1 
    76 r_2_4_5      *              1             0             1 
    77 u_2_4_5      *              0             0             1 
    78 r_1_4_8      *              1             0             1 
    79 u_1_4_8      *              0             0             1 
    80 r_2_4_8      *              1             0             1 
    81 u_2_4_8      *              0             0             1 
    82 r_1_5_7      *              0             0             1 
    83 u_1_5_7      *              1             0             1 
    84 r_2_5_7      *              1             0             1 
    85 u_2_5_7      *              0             0             1 
    86 r_1_7_8      *              0             0             1 
    87 u_1_7_8      *              0             0             1 
    88 r_2_7_8      *              1             0             1 
    89 u_2_7_8      *              0             0             1 

Integer feasibility conditions:

KKT.PE: max.abs.err = 4.55e-13 on row 85
        max.rel.err = 7.58e-17 on row 85
        High quality

KKT.PB: max.abs.err = 1.14e-13 on row 135
        max.rel.err = 3.31e-14 on row 191
        High quality

End of output
